NAME: random problem
TYPE: MTSP
COMMENT: MTSP problem for MRS UAV summer school
DIMENSION: 20
NUMBER_OF_ROBOTS: 2
START_TARGET_INDEXES: 1, 2
NEIGHBORHOOD_RADIUS: 2
EDGE_WEIGHT_TYPE: EUC_2D
NODE_COORD_SECTION
1 15.0 -21.0
2 -5.0 -25.0
3 -0.1 -24.5
4 4.7 -17.5
5 -13.8 6.4
6 8.9 -15.8
7 -15.1 -22.4
8 -14.4 -3.8
9 -22.8 -27.7
10 31.4 -19.1
11 5.8 -14.8
12 -16.3 3.7
13 25.6 12.5
14 -21.9 -32.5
15 3.4 11.9
16 -3.6 -8.6
17 -12.5 -4.9
18 -30.0 -18.9
19 19.6 -13.6
20 -0.1 -15.1
EOF
